QBPP_HJ+_30_025_20_4
30 77 1731
44 5 30 48 6 46 29 49 41 5 1 5 10 9 4 12 34 2 36 26 1 50 43 42 32 23 25 34 45 28
    0    0   24    0    0    0    0    0    0    0   22    0   82   50    4   34    0    5  100    0    0   84    0   19   40    0   32   94    0    0
    0    0    0    0    0   93    0    0   13    0    0   21   85    0   67    0    0    0    0    0    0    0    0    0    0    0   78    0    0    0
   24    0    0    0    0    0    0   68    0    0    0   52    0    0   94    0    0    0    0    0   38    4    0    0   55   27   76    0    0    0
    0    0    0    0    0   72    0    0    0    0    0   20    0    0    0    0    0    0   44   39    0    0    0    0   92    8    6    0    0   99
    0    0    0    0    0    0    0    0    0   47    0    0    0   27   21   73    0    0    0    0    0    0    0    0   41    0    0    8    0    0
    0   93    0   72    0    0    0    0    0    0   96    0    0   76    0    0    1    0    0    0   65    0    0    0   93    0   98   43    0    0
    0    0    0    0    0    0    0   13   47    0   51    0    0    0    0    0    0    0    0    0   35    0    0    0    0   73    0    0    0    0
    0    0   68    0    0    0   13    0   63    0    0    0    0    0    0    3    0    0   95    0    0    0    5   73    0   37    0    0    0    0
    0   13    0    0    0    0   47   63    0   34    0    0    0   30   37    0    0   79   71   58    0    0   62    0    0    0    0    0    0    0
    0    0    0    0   47    0    0    0   34    0    0    0    0    8   46    5    0    0    9    0    0    0    0   30   31    0    0    0    0    0
   22    0    0    0    0   96   51    0    0    0    0    0    0    0    0    0    0    0    0    0    0    0    0    9   18    0    0    0    0    0
    0   21   52   20    0    0    0    0    0    0    0    0    0    0    0    0    0    0    0   59    0    0    0    0    0    0    0    0    0    0
   82   85    0    0    0    0    0    0    0    0    0    0    0    0    0    0   67    0    0   27   92    0    0    0    0   90    0    0    8    0
   50    0    0    0   27   76    0    0   30    8    0    0    0    0    0    0    0    0   96    0   32   44    0    0    0    0    0   67    0    0
    4   67   94    0   21    0    0    0   37   46    0    0    0    0    0   91    0    0    0    0    0    0    0    0    0    0    0    0   83   94
   34    0    0    0   73    0    0    3    0    5    0    0    0    0   91    0    0    0   12   70    0    0    0    0   26    0    0   53   70    0
    0    0    0    0    0    1    0    0    0    0    0    0   67    0    0    0    0    0    0    0    0    0   16   42    0    0    0    0    0    0
    5    0    0    0    0    0    0    0   79    0    0    0    0    0    0    0    0    0    0   49    0    0    0    0   29    3    8    0    0   40
  100    0    0   44    0    0    0   95   71    9    0    0    0   96    0   12    0    0    0    0    0    0    0    0    0   55    0    0    0    0
    0    0    0   39    0    0    0    0   58    0    0   59   27    0    0   70    0   49    0    0    0   71    0    0    0    0    0    0    0    4
    0    0   38    0    0   65   35    0    0    0    0    0   92   32    0    0    0    0    0    0    0    0    0    0   41    0    0    0    0    0
   84    0    4    0    0    0    0    0    0    0    0    0    0   44    0    0    0    0    0   71    0    0    0    0    0    0   28    0    0    0
    0    0    0    0    0    0    0    5   62    0    0    0    0    0    0    0   16    0    0    0    0    0    0    0    0    0    0    0   83    0
   19    0    0    0    0    0    0   73    0   30    9    0    0    0    0    0   42    0    0    0    0    0    0    0    0    0    0    0    0    0
   40    0   55   92   41   93    0    0    0   31   18    0    0    0    0   26    0   29    0    0   41    0    0    0    0   14    1    0   89    0
    0    0   27    8    0    0   73   37    0    0    0    0   90    0    0    0    0    3   55    0    0    0    0    0   14    0    0    0    0    0
   32   78   76    6    0   98    0    0    0    0    0    0    0    0    0    0    0    8    0    0    0   28    0    0    1    0    0    0    0    0
   94    0    0    0    8   43    0    0    0    0    0    0    0   67    0   53    0    0    0    0    0    0    0    0    0    0    0    0   86    0
    0    0    0    0    0    0    0    0    0    0    0    0    8    0   83   70    0    0    0    0    0    0   83    0   89    0    0   86    0    0
    0    0    0   99    0    0    0    0    0    0    0    0    0    0   94    0    0   40    0    4    0    0    0    0    0    0    0    0    0    0
